147954
23,101,73,13,46,60,102,3,34,74,62,31,6,52,83,38,36,48,17,69,93,77,2,100,37,103,66,40,94,53,70,35,72,47,84,10,104,95,59,90,78,42,14,99,50,81,71,44,24,85,45,76,5,39,55,19,15,63,89,16,20,21,61,1,32,98,67,18,41,80,68,87,12,30,64,97,105,96,7,91,22,56,79,82,33,25,49,8,51,4,54,28,29,11,92,88,75,57,0,86,27,26,9,58,65,43
